Ce1 O2                                  
   1.0000000000000000     
    -0.0000017091883516    2.7289933709956609    2.7289933562571660
     2.7289880904392314   -0.0000014468773351    2.7289930916197251
     2.7289904987744125    2.7289955148099589   -0.0000038424123158
   Ce   O 
     1     2
Direct
  0.0000007179732290 -0.0000005987816400 -0.0000012793599079
  0.7499996475192229  0.7500002157285799  0.7500005017564715
  0.2499996345075481  0.2500003830530602  0.2500007776034364

  0.00000000E+00  0.00000000E+00  0.00000000E+00
  0.00000000E+00  0.00000000E+00  0.00000000E+00
  0.00000000E+00  0.00000000E+00  0.00000000E+00
